data/differential/BitWiseMILP/models/present_64/AS/xor2_sbox1_matrix2/1_round_model.lp
Minimize
A1 + A2 + A3 + A4 + A5 + A6 + A7 + A8 + A9 + A10 + A11 + A12 + A13 + A14 + A15 + A16
Subject To
x1 + x2 + x3 + x4 + x65 + x66 + x67 + x68 - 3 d1 >= 0
d1 - x1 >= 0
d1 - x2 >= 0
d1 - x3 >= 0
d1 - x4 >= 0
d1 - x65 >= 0
d1 - x66 >= 0
d1 - x67 >= 0
d1 - x68 >= 0
x1 + x2 + x3 + x4 - A1 >= 0
A1 - x1 >= 0
A1 - x2 >= 0
A1 - x3 >= 0
A1 - x4 >= 0
4 x1 + 4 x2 + 4 x3 + 4 x4 - x65 - x66 - x67 - x68 >= 0
4 x65 + 4 x66 + 4 x67 + 4 x68 - x1 - x2 - x3 - x4 >= 0
 + 0 x1 - 2 x2 - 2 x3 + 3 x4 + 4 x65 + 1 x66 + 4 x67 + 1 x68 >= 0
 + 3 x1 + 4 x2 + 4 x3 + 1 x4 - 2 x65 + 0 x66 - 2 x67 + 1 x68 >= 0
 - 2 x1 + 1 x2 + 1 x3 + 3 x4 + 1 x65 - 1 x66 + 1 x67 + 2 x68 >= 0
 + 1 x1 - 2 x2 - 3 x3 - 2 x4 + 1 x65 - 4 x66 + 3 x67 - 3 x68 >= -10
 + 2 x1 + 1 x2 + 1 x3 - 3 x4 + 1 x65 + 2 x66 + 1 x67 + 2 x68 >= 0
 - 1 x1 - 2 x2 - 2 x3 - 1 x4 - 1 x65 + 2 x66 - 1 x67 + 0 x68 >= -6
 - 3 x1 + 2 x2 - 2 x3 - 1 x4 + 1 x65 - 2 x66 - 2 x67 - 1 x68 >= -8
 - 3 x1 - 2 x2 + 2 x3 - 1 x4 - 2 x65 - 2 x66 + 1 x67 - 1 x68 >= -8
 + 2 x1 + 2 x2 - 1 x3 + 2 x4 - 1 x65 + 3 x66 + 2 x67 - 1 x68 >= 0
 + 3 x1 + 2 x2 + 2 x3 - 1 x4 - 4 x65 - 2 x66 - 4 x67 - 1 x68 >= -8
 + 2 x1 - 3 x2 - 1 x3 - 1 x4 + 2 x65 + 1 x66 - 3 x67 - 3 x68 >= -8
 + 0 x1 + 1 x2 + 1 x3 + 0 x4 + 1 x65 + 0 x66 + 1 x67 - 1 x68 >= 0
 - 2 x1 - 1 x2 - 1 x3 + 2 x4 - 2 x65 + 0 x66 - 2 x67 - 1 x68 >= -7
 + 1 x1 - 2 x2 + 3 x3 - 2 x4 + 1 x65 + 4 x66 + 3 x67 + 4 x68 >= 0
 + 1 x1 + 2 x2 - 2 x3 - 3 x4 - 3 x65 - 3 x66 - 1 x67 + 1 x68 >= -9
 + 1 x1 + 3 x2 - 2 x3 - 2 x4 + 3 x65 + 4 x66 + 1 x67 + 4 x68 >= 0
 - 1 x1 + 1 x2 + 1 x3 - 1 x4 + 0 x65 + 0 x66 + 0 x67 - 1 x68 >= -2
 + 1 x1 - 1 x2 + 1 x3 + 1 x4 + 1 x65 + 2 x66 - 1 x67 - 1 x68 >= -1
 - 1 x1 - 2 x2 + 1 x3 - 1 x4 + 1 x65 - 2 x66 - 2 x67 + 2 x68 >= -6
 + 1 x1 - 1 x2 - 1 x3 + 0 x4 - 1 x65 + 0 x66 - 1 x67 + 1 x68 >= -3
 + 3 x1 - 3 x2 - 2 x3 + 1 x4 - 1 x65 - 1 x66 + 3 x67 - 3 x68 >= -7
 + 1 x1 + 0 x2 - 1 x3 + 1 x4 + 1 x65 - 1 x66 - 1 x67 - 1 x68 >= -3
 + 0 x1 + 2 x2 + 2 x3 + 1 x4 - 1 x65 + 1 x66 - 1 x67 + 2 x68 >= 0
 - 1 x1 + 0 x2 - 1 x3 - 1 x4 - 1 x65 - 1 x66 + 1 x67 + 1 x68 >= -4
x5 + x6 + x7 + x8 + x69 + x70 + x71 + x72 - 3 d2 >= 0
d2 - x5 >= 0
d2 - x6 >= 0
d2 - x7 >= 0
d2 - x8 >= 0
d2 - x69 >= 0
d2 - x70 >= 0
d2 - x71 >= 0
d2 - x72 >= 0
x5 + x6 + x7 + x8 - A2 >= 0
A2 - x5 >= 0
A2 - x6 >= 0
A2 - x7 >= 0
A2 - x8 >= 0
4 x5 + 4 x6 + 4 x7 + 4 x8 - x69 - x70 - x71 - x72 >= 0
4 x69 + 4 x70 + 4 x71 + 4 x72 - x5 - x6 - x7 - x8 >= 0
 + 0 x5 - 2 x6 - 2 x7 + 3 x8 + 4 x69 + 1 x70 + 4 x71 + 1 x72 >= 0
 + 3 x5 + 4 x6 + 4 x7 + 1 x8 - 2 x69 + 0 x70 - 2 x71 + 1 x72 >= 0
 - 2 x5 + 1 x6 + 1 x7 + 3 x8 + 1 x69 - 1 x70 + 1 x71 + 2 x72 >= 0
 + 1 x5 - 2 x6 - 3 x7 - 2 x8 + 1 x69 - 4 x70 + 3 x71 - 3 x72 >= -10
 + 2 x5 + 1 x6 + 1 x7 - 3 x8 + 1 x69 + 2 x70 + 1 x71 + 2 x72 >= 0
 - 1 x5 - 2 x6 - 2 x7 - 1 x8 - 1 x69 + 2 x70 - 1 x71 + 0 x72 >= -6
 - 3 x5 + 2 x6 - 2 x7 - 1 x8 + 1 x69 - 2 x70 - 2 x71 - 1 x72 >= -8
 - 3 x5 - 2 x6 + 2 x7 - 1 x8 - 2 x69 - 2 x70 + 1 x71 - 1 x72 >= -8
 + 2 x5 + 2 x6 - 1 x7 + 2 x8 - 1 x69 + 3 x70 + 2 x71 - 1 x72 >= 0
 + 3 x5 + 2 x6 + 2 x7 - 1 x8 - 4 x69 - 2 x70 - 4 x71 - 1 x72 >= -8
 + 2 x5 - 3 x6 - 1 x7 - 1 x8 + 2 x69 + 1 x70 - 3 x71 - 3 x72 >= -8
 + 0 x5 + 1 x6 + 1 x7 + 0 x8 + 1 x69 + 0 x70 + 1 x71 - 1 x72 >= 0
 - 2 x5 - 1 x6 - 1 x7 + 2 x8 - 2 x69 + 0 x70 - 2 x71 - 1 x72 >= -7
 + 1 x5 - 2 x6 + 3 x7 - 2 x8 + 1 x69 + 4 x70 + 3 x71 + 4 x72 >= 0
 + 1 x5 + 2 x6 - 2 x7 - 3 x8 - 3 x69 - 3 x70 - 1 x71 + 1 x72 >= -9
 + 1 x5 + 3 x6 - 2 x7 - 2 x8 + 3 x69 + 4 x70 + 1 x71 + 4 x72 >= 0
 - 1 x5 + 1 x6 + 1 x7 - 1 x8 + 0 x69 + 0 x70 + 0 x71 - 1 x72 >= -2
 + 1 x5 - 1 x6 + 1 x7 + 1 x8 + 1 x69 + 2 x70 - 1 x71 - 1 x72 >= -1
 - 1 x5 - 2 x6 + 1 x7 - 1 x8 + 1 x69 - 2 x70 - 2 x71 + 2 x72 >= -6
 + 1 x5 - 1 x6 - 1 x7 + 0 x8 - 1 x69 + 0 x70 - 1 x71 + 1 x72 >= -3
 + 3 x5 - 3 x6 - 2 x7 + 1 x8 - 1 x69 - 1 x70 + 3 x71 - 3 x72 >= -7
 + 1 x5 + 0 x6 - 1 x7 + 1 x8 + 1 x69 - 1 x70 - 1 x71 - 1 x72 >= -3
 + 0 x5 + 2 x6 + 2 x7 + 1 x8 - 1 x69 + 1 x70 - 1 x71 + 2 x72 >= 0
 - 1 x5 + 0 x6 - 1 x7 - 1 x8 - 1 x69 - 1 x70 + 1 x71 + 1 x72 >= -4
x9 + x10 + x11 + x12 + x73 + x74 + x75 + x76 - 3 d3 >= 0
d3 - x9 >= 0
d3 - x10 >= 0
d3 - x11 >= 0
d3 - x12 >= 0
d3 - x73 >= 0
d3 - x74 >= 0
d3 - x75 >= 0
d3 - x76 >= 0
x9 + x10 + x11 + x12 - A3 >= 0
A3 - x9 >= 0
A3 - x10 >= 0
A3 - x11 >= 0
A3 - x12 >= 0
4 x9 + 4 x10 + 4 x11 + 4 x12 - x73 - x74 - x75 - x76 >= 0
4 x73 + 4 x74 + 4 x75 + 4 x76 - x9 - x10 - x11 - x12 >= 0
 + 0 x9 - 2 x10 - 2 x11 + 3 x12 + 4 x73 + 1 x74 + 4 x75 + 1 x76 >= 0
 + 3 x9 + 4 x10 + 4 x11 + 1 x12 - 2 x73 + 0 x74 - 2 x75 + 1 x76 >= 0
 - 2 x9 + 1 x10 + 1 x11 + 3 x12 + 1 x73 - 1 x74 + 1 x75 + 2 x76 >= 0
 + 1 x9 - 2 x10 - 3 x11 - 2 x12 + 1 x73 - 4 x74 + 3 x75 - 3 x76 >= -10
 + 2 x9 + 1 x10 + 1 x11 - 3 x12 + 1 x73 + 2 x74 + 1 x75 + 2 x76 >= 0
 - 1 x9 - 2 x10 - 2 x11 - 1 x12 - 1 x73 + 2 x74 - 1 x75 + 0 x76 >= -6
 - 3 x9 + 2 x10 - 2 x11 - 1 x12 + 1 x73 - 2 x74 - 2 x75 - 1 x76 >= -8
 - 3 x9 - 2 x10 + 2 x11 - 1 x12 - 2 x73 - 2 x74 + 1 x75 - 1 x76 >= -8
 + 2 x9 + 2 x10 - 1 x11 + 2 x12 - 1 x73 + 3 x74 + 2 x75 - 1 x76 >= 0
 + 3 x9 + 2 x10 + 2 x11 - 1 x12 - 4 x73 - 2 x74 - 4 x75 - 1 x76 >= -8
 + 2 x9 - 3 x10 - 1 x11 - 1 x12 + 2 x73 + 1 x74 - 3 x75 - 3 x76 >= -8
 + 0 x9 + 1 x10 + 1 x11 + 0 x12 + 1 x73 + 0 x74 + 1 x75 - 1 x76 >= 0
 - 2 x9 - 1 x10 - 1 x11 + 2 x12 - 2 x73 + 0 x74 - 2 x75 - 1 x76 >= -7
 + 1 x9 - 2 x10 + 3 x11 - 2 x12 + 1 x73 + 4 x74 + 3 x75 + 4 x76 >= 0
 + 1 x9 + 2 x10 - 2 x11 - 3 x12 - 3 x73 - 3 x74 - 1 x75 + 1 x76 >= -9
 + 1 x9 + 3 x10 - 2 x11 - 2 x12 + 3 x73 + 4 x74 + 1 x75 + 4 x76 >= 0
 - 1 x9 + 1 x10 + 1 x11 - 1 x12 + 0 x73 + 0 x74 + 0 x75 - 1 x76 >= -2
 + 1 x9 - 1 x10 + 1 x11 + 1 x12 + 1 x73 + 2 x74 - 1 x75 - 1 x76 >= -1
 - 1 x9 - 2 x10 + 1 x11 - 1 x12 + 1 x73 - 2 x74 - 2 x75 + 2 x76 >= -6
 + 1 x9 - 1 x10 - 1 x11 + 0 x12 - 1 x73 + 0 x74 - 1 x75 + 1 x76 >= -3
 + 3 x9 - 3 x10 - 2 x11 + 1 x12 - 1 x73 - 1 x74 + 3 x75 - 3 x76 >= -7
 + 1 x9 + 0 x10 - 1 x11 + 1 x12 + 1 x73 - 1 x74 - 1 x75 - 1 x76 >= -3
 + 0 x9 + 2 x10 + 2 x11 + 1 x12 - 1 x73 + 1 x74 - 1 x75 + 2 x76 >= 0
 - 1 x9 + 0 x10 - 1 x11 - 1 x12 - 1 x73 - 1 x74 + 1 x75 + 1 x76 >= -4
x13 + x14 + x15 + x16 + x77 + x78 + x79 + x80 - 3 d4 >= 0
d4 - x13 >= 0
d4 - x14 >= 0
d4 - x15 >= 0
d4 - x16 >= 0
d4 - x77 >= 0
d4 - x78 >= 0
d4 - x79 >= 0
d4 - x80 >= 0
x13 + x14 + x15 + x16 - A4 >= 0
A4 - x13 >= 0
A4 - x14 >= 0
A4 - x15 >= 0
A4 - x16 >= 0
4 x13 + 4 x14 + 4 x15 + 4 x16 - x77 - x78 - x79 - x80 >= 0
4 x77 + 4 x78 + 4 x79 + 4 x80 - x13 - x14 - x15 - x16 >= 0
 + 0 x13 - 2 x14 - 2 x15 + 3 x16 + 4 x77 + 1 x78 + 4 x79 + 1 x80 >= 0
 + 3 x13 + 4 x14 + 4 x15 + 1 x16 - 2 x77 + 0 x78 - 2 x79 + 1 x80 >= 0
 - 2 x13 + 1 x14 + 1 x15 + 3 x16 + 1 x77 - 1 x78 + 1 x79 + 2 x80 >= 0
 + 1 x13 - 2 x14 - 3 x15 - 2 x16 + 1 x77 - 4 x78 + 3 x79 - 3 x80 >= -10
 + 2 x13 + 1 x14 + 1 x15 - 3 x16 + 1 x77 + 2 x78 + 1 x79 + 2 x80 >= 0
 - 1 x13 - 2 x14 - 2 x15 - 1 x16 - 1 x77 + 2 x78 - 1 x79 + 0 x80 >= -6
 - 3 x13 + 2 x14 - 2 x15 - 1 x16 + 1 x77 - 2 x78 - 2 x79 - 1 x80 >= -8
 - 3 x13 - 2 x14 + 2 x15 - 1 x16 - 2 x77 - 2 x78 + 1 x79 - 1 x80 >= -8
 + 2 x13 + 2 x14 - 1 x15 + 2 x16 - 1 x77 + 3 x78 + 2 x79 - 1 x80 >= 0
 + 3 x13 + 2 x14 + 2 x15 - 1 x16 - 4 x77 - 2 x78 - 4 x79 - 1 x80 >= -8
 + 2 x13 - 3 x14 - 1 x15 - 1 x16 + 2 x77 + 1 x78 - 3 x79 - 3 x80 >= -8
 + 0 x13 + 1 x14 + 1 x15 + 0 x16 + 1 x77 + 0 x78 + 1 x79 - 1 x80 >= 0
 - 2 x13 - 1 x14 - 1 x15 + 2 x16 - 2 x77 + 0 x78 - 2 x79 - 1 x80 >= -7
 + 1 x13 - 2 x14 + 3 x15 - 2 x16 + 1 x77 + 4 x78 + 3 x79 + 4 x80 >= 0
 + 1 x13 + 2 x14 - 2 x15 - 3 x16 - 3 x77 - 3 x78 - 1 x79 + 1 x80 >= -9
 + 1 x13 + 3 x14 - 2 x15 - 2 x16 + 3 x77 + 4 x78 + 1 x79 + 4 x80 >= 0
 - 1 x13 + 1 x14 + 1 x15 - 1 x16 + 0 x77 + 0 x78 + 0 x79 - 1 x80 >= -2
 + 1 x13 - 1 x14 + 1 x15 + 1 x16 + 1 x77 + 2 x78 - 1 x79 - 1 x80 >= -1
 - 1 x13 - 2 x14 + 1 x15 - 1 x16 + 1 x77 - 2 x78 - 2 x79 + 2 x80 >= -6
 + 1 x13 - 1 x14 - 1 x15 + 0 x16 - 1 x77 + 0 x78 - 1 x79 + 1 x80 >= -3
 + 3 x13 - 3 x14 - 2 x15 + 1 x16 - 1 x77 - 1 x78 + 3 x79 - 3 x80 >= -7
 + 1 x13 + 0 x14 - 1 x15 + 1 x16 + 1 x77 - 1 x78 - 1 x79 - 1 x80 >= -3
 + 0 x13 + 2 x14 + 2 x15 + 1 x16 - 1 x77 + 1 x78 - 1 x79 + 2 x80 >= 0
 - 1 x13 + 0 x14 - 1 x15 - 1 x16 - 1 x77 - 1 x78 + 1 x79 + 1 x80 >= -4
x17 + x18 + x19 + x20 + x81 + x82 + x83 + x84 - 3 d5 >= 0
d5 - x17 >= 0
d5 - x18 >= 0
d5 - x19 >= 0
d5 - x20 >= 0
d5 - x81 >= 0
d5 - x82 >= 0
d5 - x83 >= 0
d5 - x84 >= 0
x17 + x18 + x19 + x20 - A5 >= 0
A5 - x17 >= 0
A5 - x18 >= 0
A5 - x19 >= 0
A5 - x20 >= 0
4 x17 + 4 x18 + 4 x19 + 4 x20 - x81 - x82 - x83 - x84 >= 0
4 x81 + 4 x82 + 4 x83 + 4 x84 - x17 - x18 - x19 - x20 >= 0
 + 0 x17 - 2 x18 - 2 x19 + 3 x20 + 4 x81 + 1 x82 + 4 x83 + 1 x84 >= 0
 + 3 x17 + 4 x18 + 4 x19 + 1 x20 - 2 x81 + 0 x82 - 2 x83 + 1 x84 >= 0
 - 2 x17 + 1 x18 + 1 x19 + 3 x20 + 1 x81 - 1 x82 + 1 x83 + 2 x84 >= 0
 + 1 x17 - 2 x18 - 3 x19 - 2 x20 + 1 x81 - 4 x82 + 3 x83 - 3 x84 >= -10
 + 2 x17 + 1 x18 + 1 x19 - 3 x20 + 1 x81 + 2 x82 + 1 x83 + 2 x84 >= 0
 - 1 x17 - 2 x18 - 2 x19 - 1 x20 - 1 x81 + 2 x82 - 1 x83 + 0 x84 >= -6
 - 3 x17 + 2 x18 - 2 x19 - 1 x20 + 1 x81 - 2 x82 - 2 x83 - 1 x84 >= -8
 - 3 x17 - 2 x18 + 2 x19 - 1 x20 - 2 x81 - 2 x82 + 1 x83 - 1 x84 >= -8
 + 2 x17 + 2 x18 - 1 x19 + 2 x20 - 1 x81 + 3 x82 + 2 x83 - 1 x84 >= 0
 + 3 x17 + 2 x18 + 2 x19 - 1 x20 - 4 x81 - 2 x82 - 4 x83 - 1 x84 >= -8
 + 2 x17 - 3 x18 - 1 x19 - 1 x20 + 2 x81 + 1 x82 - 3 x83 - 3 x84 >= -8
 + 0 x17 + 1 x18 + 1 x19 + 0 x20 + 1 x81 + 0 x82 + 1 x83 - 1 x84 >= 0
 - 2 x17 - 1 x18 - 1 x19 + 2 x20 - 2 x81 + 0 x82 - 2 x83 - 1 x84 >= -7
 + 1 x17 - 2 x18 + 3 x19 - 2 x20 + 1 x81 + 4 x82 + 3 x83 + 4 x84 >= 0
 + 1 x17 + 2 x18 - 2 x19 - 3 x20 - 3 x81 - 3 x82 - 1 x83 + 1 x84 >= -9
 + 1 x17 + 3 x18 - 2 x19 - 2 x20 + 3 x81 + 4 x82 + 1 x83 + 4 x84 >= 0
 - 1 x17 + 1 x18 + 1 x19 - 1 x20 + 0 x81 + 0 x82 + 0 x83 - 1 x84 >= -2
 + 1 x17 - 1 x18 + 1 x19 + 1 x20 + 1 x81 + 2 x82 - 1 x83 - 1 x84 >= -1
 - 1 x17 - 2 x18 + 1 x19 - 1 x20 + 1 x81 - 2 x82 - 2 x83 + 2 x84 >= -6
 + 1 x17 - 1 x18 - 1 x19 + 0 x20 - 1 x81 + 0 x82 - 1 x83 + 1 x84 >= -3
 + 3 x17 - 3 x18 - 2 x19 + 1 x20 - 1 x81 - 1 x82 + 3 x83 - 3 x84 >= -7
 + 1 x17 + 0 x18 - 1 x19 + 1 x20 + 1 x81 - 1 x82 - 1 x83 - 1 x84 >= -3
 + 0 x17 + 2 x18 + 2 x19 + 1 x20 - 1 x81 + 1 x82 - 1 x83 + 2 x84 >= 0
 - 1 x17 + 0 x18 - 1 x19 - 1 x20 - 1 x81 - 1 x82 + 1 x83 + 1 x84 >= -4
x21 + x22 + x23 + x24 + x85 + x86 + x87 + x88 - 3 d6 >= 0
d6 - x21 >= 0
d6 - x22 >= 0
d6 - x23 >= 0
d6 - x24 >= 0
d6 - x85 >= 0
d6 - x86 >= 0
d6 - x87 >= 0
d6 - x88 >= 0
x21 + x22 + x23 + x24 - A6 >= 0
A6 - x21 >= 0
A6 - x22 >= 0
A6 - x23 >= 0
A6 - x24 >= 0
4 x21 + 4 x22 + 4 x23 + 4 x24 - x85 - x86 - x87 - x88 >= 0
4 x85 + 4 x86 + 4 x87 + 4 x88 - x21 - x22 - x23 - x24 >= 0
 + 0 x21 - 2 x22 - 2 x23 + 3 x24 + 4 x85 + 1 x86 + 4 x87 + 1 x88 >= 0
 + 3 x21 + 4 x22 + 4 x23 + 1 x24 - 2 x85 + 0 x86 - 2 x87 + 1 x88 >= 0
 - 2 x21 + 1 x22 + 1 x23 + 3 x24 + 1 x85 - 1 x86 + 1 x87 + 2 x88 >= 0
 + 1 x21 - 2 x22 - 3 x23 - 2 x24 + 1 x85 - 4 x86 + 3 x87 - 3 x88 >= -10
 + 2 x21 + 1 x22 + 1 x23 - 3 x24 + 1 x85 + 2 x86 + 1 x87 + 2 x88 >= 0
 - 1 x21 - 2 x22 - 2 x23 - 1 x24 - 1 x85 + 2 x86 - 1 x87 + 0 x88 >= -6
 - 3 x21 + 2 x22 - 2 x23 - 1 x24 + 1 x85 - 2 x86 - 2 x87 - 1 x88 >= -8
 - 3 x21 - 2 x22 + 2 x23 - 1 x24 - 2 x85 - 2 x86 + 1 x87 - 1 x88 >= -8
 + 2 x21 + 2 x22 - 1 x23 + 2 x24 - 1 x85 + 3 x86 + 2 x87 - 1 x88 >= 0
 + 3 x21 + 2 x22 + 2 x23 - 1 x24 - 4 x85 - 2 x86 - 4 x87 - 1 x88 >= -8
 + 2 x21 - 3 x22 - 1 x23 - 1 x24 + 2 x85 + 1 x86 - 3 x87 - 3 x88 >= -8
 + 0 x21 + 1 x22 + 1 x23 + 0 x24 + 1 x85 + 0 x86 + 1 x87 - 1 x88 >= 0
 - 2 x21 - 1 x22 - 1 x23 + 2 x24 - 2 x85 + 0 x86 - 2 x87 - 1 x88 >= -7
 + 1 x21 - 2 x22 + 3 x23 - 2 x24 + 1 x85 + 4 x86 + 3 x87 + 4 x88 >= 0
 + 1 x21 + 2 x22 - 2 x23 - 3 x24 - 3 x85 - 3 x86 - 1 x87 + 1 x88 >= -9
 + 1 x21 + 3 x22 - 2 x23 - 2 x24 + 3 x85 + 4 x86 + 1 x87 + 4 x88 >= 0
 - 1 x21 + 1 x22 + 1 x23 - 1 x24 + 0 x85 + 0 x86 + 0 x87 - 1 x88 >= -2
 + 1 x21 - 1 x22 + 1 x23 + 1 x24 + 1 x85 + 2 x86 - 1 x87 - 1 x88 >= -1
 - 1 x21 - 2 x22 + 1 x23 - 1 x24 + 1 x85 - 2 x86 - 2 x87 + 2 x88 >= -6
 + 1 x21 - 1 x22 - 1 x23 + 0 x24 - 1 x85 + 0 x86 - 1 x87 + 1 x88 >= -3
 + 3 x21 - 3 x22 - 2 x23 + 1 x24 - 1 x85 - 1 x86 + 3 x87 - 3 x88 >= -7
 + 1 x21 + 0 x22 - 1 x23 + 1 x24 + 1 x85 - 1 x86 - 1 x87 - 1 x88 >= -3
 + 0 x21 + 2 x22 + 2 x23 + 1 x24 - 1 x85 + 1 x86 - 1 x87 + 2 x88 >= 0
 - 1 x21 + 0 x22 - 1 x23 - 1 x24 - 1 x85 - 1 x86 + 1 x87 + 1 x88 >= -4
x25 + x26 + x27 + x28 + x89 + x90 + x91 + x92 - 3 d7 >= 0
d7 - x25 >= 0
d7 - x26 >= 0
d7 - x27 >= 0
d7 - x28 >= 0
d7 - x89 >= 0
d7 - x90 >= 0
d7 - x91 >= 0
d7 - x92 >= 0
x25 + x26 + x27 + x28 - A7 >= 0
A7 - x25 >= 0
A7 - x26 >= 0
A7 - x27 >= 0
A7 - x28 >= 0
4 x25 + 4 x26 + 4 x27 + 4 x28 - x89 - x90 - x91 - x92 >= 0
4 x89 + 4 x90 + 4 x91 + 4 x92 - x25 - x26 - x27 - x28 >= 0
 + 0 x25 - 2 x26 - 2 x27 + 3 x28 + 4 x89 + 1 x90 + 4 x91 + 1 x92 >= 0
 + 3 x25 + 4 x26 + 4 x27 + 1 x28 - 2 x89 + 0 x90 - 2 x91 + 1 x92 >= 0
 - 2 x25 + 1 x26 + 1 x27 + 3 x28 + 1 x89 - 1 x90 + 1 x91 + 2 x92 >= 0
 + 1 x25 - 2 x26 - 3 x27 - 2 x28 + 1 x89 - 4 x90 + 3 x91 - 3 x92 >= -10
 + 2 x25 + 1 x26 + 1 x27 - 3 x28 + 1 x89 + 2 x90 + 1 x91 + 2 x92 >= 0
 - 1 x25 - 2 x26 - 2 x27 - 1 x28 - 1 x89 + 2 x90 - 1 x91 + 0 x92 >= -6
 - 3 x25 + 2 x26 - 2 x27 - 1 x28 + 1 x89 - 2 x90 - 2 x91 - 1 x92 >= -8
 - 3 x25 - 2 x26 + 2 x27 - 1 x28 - 2 x89 - 2 x90 + 1 x91 - 1 x92 >= -8
 + 2 x25 + 2 x26 - 1 x27 + 2 x28 - 1 x89 + 3 x90 + 2 x91 - 1 x92 >= 0
 + 3 x25 + 2 x26 + 2 x27 - 1 x28 - 4 x89 - 2 x90 - 4 x91 - 1 x92 >= -8
 + 2 x25 - 3 x26 - 1 x27 - 1 x28 + 2 x89 + 1 x90 - 3 x91 - 3 x92 >= -8
 + 0 x25 + 1 x26 + 1 x27 + 0 x28 + 1 x89 + 0 x90 + 1 x91 - 1 x92 >= 0
 - 2 x25 - 1 x26 - 1 x27 + 2 x28 - 2 x89 + 0 x90 - 2 x91 - 1 x92 >= -7
 + 1 x25 - 2 x26 + 3 x27 - 2 x28 + 1 x89 + 4 x90 + 3 x91 + 4 x92 >= 0
 + 1 x25 + 2 x26 - 2 x27 - 3 x28 - 3 x89 - 3 x90 - 1 x91 + 1 x92 >= -9
 + 1 x25 + 3 x26 - 2 x27 - 2 x28 + 3 x89 + 4 x90 + 1 x91 + 4 x92 >= 0
 - 1 x25 + 1 x26 + 1 x27 - 1 x28 + 0 x89 + 0 x90 + 0 x91 - 1 x92 >= -2
 + 1 x25 - 1 x26 + 1 x27 + 1 x28 + 1 x89 + 2 x90 - 1 x91 - 1 x92 >= -1
 - 1 x25 - 2 x26 + 1 x27 - 1 x28 + 1 x89 - 2 x90 - 2 x91 + 2 x92 >= -6
 + 1 x25 - 1 x26 - 1 x27 + 0 x28 - 1 x89 + 0 x90 - 1 x91 + 1 x92 >= -3
 + 3 x25 - 3 x26 - 2 x27 + 1 x28 - 1 x89 - 1 x90 + 3 x91 - 3 x92 >= -7
 + 1 x25 + 0 x26 - 1 x27 + 1 x28 + 1 x89 - 1 x90 - 1 x91 - 1 x92 >= -3
 + 0 x25 + 2 x26 + 2 x27 + 1 x28 - 1 x89 + 1 x90 - 1 x91 + 2 x92 >= 0
 - 1 x25 + 0 x26 - 1 x27 - 1 x28 - 1 x89 - 1 x90 + 1 x91 + 1 x92 >= -4
x29 + x30 + x31 + x32 + x93 + x94 + x95 + x96 - 3 d8 >= 0
d8 - x29 >= 0
d8 - x30 >= 0
d8 - x31 >= 0
d8 - x32 >= 0
d8 - x93 >= 0
d8 - x94 >= 0
d8 - x95 >= 0
d8 - x96 >= 0
x29 + x30 + x31 + x32 - A8 >= 0
A8 - x29 >= 0
A8 - x30 >= 0
A8 - x31 >= 0
A8 - x32 >= 0
4 x29 + 4 x30 + 4 x31 + 4 x32 - x93 - x94 - x95 - x96 >= 0
4 x93 + 4 x94 + 4 x95 + 4 x96 - x29 - x30 - x31 - x32 >= 0
 + 0 x29 - 2 x30 - 2 x31 + 3 x32 + 4 x93 + 1 x94 + 4 x95 + 1 x96 >= 0
 + 3 x29 + 4 x30 + 4 x31 + 1 x32 - 2 x93 + 0 x94 - 2 x95 + 1 x96 >= 0
 - 2 x29 + 1 x30 + 1 x31 + 3 x32 + 1 x93 - 1 x94 + 1 x95 + 2 x96 >= 0
 + 1 x29 - 2 x30 - 3 x31 - 2 x32 + 1 x93 - 4 x94 + 3 x95 - 3 x96 >= -10
 + 2 x29 + 1 x30 + 1 x31 - 3 x32 + 1 x93 + 2 x94 + 1 x95 + 2 x96 >= 0
 - 1 x29 - 2 x30 - 2 x31 - 1 x32 - 1 x93 + 2 x94 - 1 x95 + 0 x96 >= -6
 - 3 x29 + 2 x30 - 2 x31 - 1 x32 + 1 x93 - 2 x94 - 2 x95 - 1 x96 >= -8
 - 3 x29 - 2 x30 + 2 x31 - 1 x32 - 2 x93 - 2 x94 + 1 x95 - 1 x96 >= -8
 + 2 x29 + 2 x30 - 1 x31 + 2 x32 - 1 x93 + 3 x94 + 2 x95 - 1 x96 >= 0
 + 3 x29 + 2 x30 + 2 x31 - 1 x32 - 4 x93 - 2 x94 - 4 x95 - 1 x96 >= -8
 + 2 x29 - 3 x30 - 1 x31 - 1 x32 + 2 x93 + 1 x94 - 3 x95 - 3 x96 >= -8
 + 0 x29 + 1 x30 + 1 x31 + 0 x32 + 1 x93 + 0 x94 + 1 x95 - 1 x96 >= 0
 - 2 x29 - 1 x30 - 1 x31 + 2 x32 - 2 x93 + 0 x94 - 2 x95 - 1 x96 >= -7
 + 1 x29 - 2 x30 + 3 x31 - 2 x32 + 1 x93 + 4 x94 + 3 x95 + 4 x96 >= 0
 + 1 x29 + 2 x30 - 2 x31 - 3 x32 - 3 x93 - 3 x94 - 1 x95 + 1 x96 >= -9
 + 1 x29 + 3 x30 - 2 x31 - 2 x32 + 3 x93 + 4 x94 + 1 x95 + 4 x96 >= 0
 - 1 x29 + 1 x30 + 1 x31 - 1 x32 + 0 x93 + 0 x94 + 0 x95 - 1 x96 >= -2
 + 1 x29 - 1 x30 + 1 x31 + 1 x32 + 1 x93 + 2 x94 - 1 x95 - 1 x96 >= -1
 - 1 x29 - 2 x30 + 1 x31 - 1 x32 + 1 x93 - 2 x94 - 2 x95 + 2 x96 >= -6
 + 1 x29 - 1 x30 - 1 x31 + 0 x32 - 1 x93 + 0 x94 - 1 x95 + 1 x96 >= -3
 + 3 x29 - 3 x30 - 2 x31 + 1 x32 - 1 x93 - 1 x94 + 3 x95 - 3 x96 >= -7
 + 1 x29 + 0 x30 - 1 x31 + 1 x32 + 1 x93 - 1 x94 - 1 x95 - 1 x96 >= -3
 + 0 x29 + 2 x30 + 2 x31 + 1 x32 - 1 x93 + 1 x94 - 1 x95 + 2 x96 >= 0
 - 1 x29 + 0 x30 - 1 x31 - 1 x32 - 1 x93 - 1 x94 + 1 x95 + 1 x96 >= -4
x33 + x34 + x35 + x36 + x97 + x98 + x99 + x100 - 3 d9 >= 0
d9 - x33 >= 0
d9 - x34 >= 0
d9 - x35 >= 0
d9 - x36 >= 0
d9 - x97 >= 0
d9 - x98 >= 0
d9 - x99 >= 0
d9 - x100 >= 0
x33 + x34 + x35 + x36 - A9 >= 0
A9 - x33 >= 0
A9 - x34 >= 0
A9 - x35 >= 0
A9 - x36 >= 0
4 x33 + 4 x34 + 4 x35 + 4 x36 - x97 - x98 - x99 - x100 >= 0
4 x97 + 4 x98 + 4 x99 + 4 x100 - x33 - x34 - x35 - x36 >= 0
 + 0 x33 - 2 x34 - 2 x35 + 3 x36 + 4 x97 + 1 x98 + 4 x99 + 1 x100 >= 0
 + 3 x33 + 4 x34 + 4 x35 + 1 x36 - 2 x97 + 0 x98 - 2 x99 + 1 x100 >= 0
 - 2 x33 + 1 x34 + 1 x35 + 3 x36 + 1 x97 - 1 x98 + 1 x99 + 2 x100 >= 0
 + 1 x33 - 2 x34 - 3 x35 - 2 x36 + 1 x97 - 4 x98 + 3 x99 - 3 x100 >= -10
 + 2 x33 + 1 x34 + 1 x35 - 3 x36 + 1 x97 + 2 x98 + 1 x99 + 2 x100 >= 0
 - 1 x33 - 2 x34 - 2 x35 - 1 x36 - 1 x97 + 2 x98 - 1 x99 + 0 x100 >= -6
 - 3 x33 + 2 x34 - 2 x35 - 1 x36 + 1 x97 - 2 x98 - 2 x99 - 1 x100 >= -8
 - 3 x33 - 2 x34 + 2 x35 - 1 x36 - 2 x97 - 2 x98 + 1 x99 - 1 x100 >= -8
 + 2 x33 + 2 x34 - 1 x35 + 2 x36 - 1 x97 + 3 x98 + 2 x99 - 1 x100 >= 0
 + 3 x33 + 2 x34 + 2 x35 - 1 x36 - 4 x97 - 2 x98 - 4 x99 - 1 x100 >= -8
 + 2 x33 - 3 x34 - 1 x35 - 1 x36 + 2 x97 + 1 x98 - 3 x99 - 3 x100 >= -8
 + 0 x33 + 1 x34 + 1 x35 + 0 x36 + 1 x97 + 0 x98 + 1 x99 - 1 x100 >= 0
 - 2 x33 - 1 x34 - 1 x35 + 2 x36 - 2 x97 + 0 x98 - 2 x99 - 1 x100 >= -7
 + 1 x33 - 2 x34 + 3 x35 - 2 x36 + 1 x97 + 4 x98 + 3 x99 + 4 x100 >= 0
 + 1 x33 + 2 x34 - 2 x35 - 3 x36 - 3 x97 - 3 x98 - 1 x99 + 1 x100 >= -9
 + 1 x33 + 3 x34 - 2 x35 - 2 x36 + 3 x97 + 4 x98 + 1 x99 + 4 x100 >= 0
 - 1 x33 + 1 x34 + 1 x35 - 1 x36 + 0 x97 + 0 x98 + 0 x99 - 1 x100 >= -2
 + 1 x33 - 1 x34 + 1 x35 + 1 x36 + 1 x97 + 2 x98 - 1 x99 - 1 x100 >= -1
 - 1 x33 - 2 x34 + 1 x35 - 1 x36 + 1 x97 - 2 x98 - 2 x99 + 2 x100 >= -6
 + 1 x33 - 1 x34 - 1 x35 + 0 x36 - 1 x97 + 0 x98 - 1 x99 + 1 x100 >= -3
 + 3 x33 - 3 x34 - 2 x35 + 1 x36 - 1 x97 - 1 x98 + 3 x99 - 3 x100 >= -7
 + 1 x33 + 0 x34 - 1 x35 + 1 x36 + 1 x97 - 1 x98 - 1 x99 - 1 x100 >= -3
 + 0 x33 + 2 x34 + 2 x35 + 1 x36 - 1 x97 + 1 x98 - 1 x99 + 2 x100 >= 0
 - 1 x33 + 0 x34 - 1 x35 - 1 x36 - 1 x97 - 1 x98 + 1 x99 + 1 x100 >= -4
x37 + x38 + x39 + x40 + x101 + x102 + x103 + x104 - 3 d10 >= 0
d10 - x37 >= 0
d10 - x38 >= 0
d10 - x39 >= 0
d10 - x40 >= 0
d10 - x101 >= 0
d10 - x102 >= 0
d10 - x103 >= 0
d10 - x104 >= 0
x37 + x38 + x39 + x40 - A10 >= 0
A10 - x37 >= 0
A10 - x38 >= 0
A10 - x39 >= 0
A10 - x40 >= 0
4 x37 + 4 x38 + 4 x39 + 4 x40 - x101 - x102 - x103 - x104 >= 0
4 x101 + 4 x102 + 4 x103 + 4 x104 - x37 - x38 - x39 - x40 >= 0
 + 0 x37 - 2 x38 - 2 x39 + 3 x40 + 4 x101 + 1 x102 + 4 x103 + 1 x104 >= 0
 + 3 x37 + 4 x38 + 4 x39 + 1 x40 - 2 x101 + 0 x102 - 2 x103 + 1 x104 >= 0
 - 2 x37 + 1 x38 + 1 x39 + 3 x40 + 1 x101 - 1 x102 + 1 x103 + 2 x104 >= 0
 + 1 x37 - 2 x38 - 3 x39 - 2 x40 + 1 x101 - 4 x102 + 3 x103 - 3 x104 >= -10
 + 2 x37 + 1 x38 + 1 x39 - 3 x40 + 1 x101 + 2 x102 + 1 x103 + 2 x104 >= 0
 - 1 x37 - 2 x38 - 2 x39 - 1 x40 - 1 x101 + 2 x102 - 1 x103 + 0 x104 >= -6
 - 3 x37 + 2 x38 - 2 x39 - 1 x40 + 1 x101 - 2 x102 - 2 x103 - 1 x104 >= -8
 - 3 x37 - 2 x38 + 2 x39 - 1 x40 - 2 x101 - 2 x102 + 1 x103 - 1 x104 >= -8
 + 2 x37 + 2 x38 - 1 x39 + 2 x40 - 1 x101 + 3 x102 + 2 x103 - 1 x104 >= 0
 + 3 x37 + 2 x38 + 2 x39 - 1 x40 - 4 x101 - 2 x102 - 4 x103 - 1 x104 >= -8
 + 2 x37 - 3 x38 - 1 x39 - 1 x40 + 2 x101 + 1 x102 - 3 x103 - 3 x104 >= -8
 + 0 x37 + 1 x38 + 1 x39 + 0 x40 + 1 x101 + 0 x102 + 1 x103 - 1 x104 >= 0
 - 2 x37 - 1 x38 - 1 x39 + 2 x40 - 2 x101 + 0 x102 - 2 x103 - 1 x104 >= -7
 + 1 x37 - 2 x38 + 3 x39 - 2 x40 + 1 x101 + 4 x102 + 3 x103 + 4 x104 >= 0
 + 1 x37 + 2 x38 - 2 x39 - 3 x40 - 3 x101 - 3 x102 - 1 x103 + 1 x104 >= -9
 + 1 x37 + 3 x38 - 2 x39 - 2 x40 + 3 x101 + 4 x102 + 1 x103 + 4 x104 >= 0
 - 1 x37 + 1 x38 + 1 x39 - 1 x40 + 0 x101 + 0 x102 + 0 x103 - 1 x104 >= -2
 + 1 x37 - 1 x38 + 1 x39 + 1 x40 + 1 x101 + 2 x102 - 1 x103 - 1 x104 >= -1
 - 1 x37 - 2 x38 + 1 x39 - 1 x40 + 1 x101 - 2 x102 - 2 x103 + 2 x104 >= -6
 + 1 x37 - 1 x38 - 1 x39 + 0 x40 - 1 x101 + 0 x102 - 1 x103 + 1 x104 >= -3
 + 3 x37 - 3 x38 - 2 x39 + 1 x40 - 1 x101 - 1 x102 + 3 x103 - 3 x104 >= -7
 + 1 x37 + 0 x38 - 1 x39 + 1 x40 + 1 x101 - 1 x102 - 1 x103 - 1 x104 >= -3
 + 0 x37 + 2 x38 + 2 x39 + 1 x40 - 1 x101 + 1 x102 - 1 x103 + 2 x104 >= 0
 - 1 x37 + 0 x38 - 1 x39 - 1 x40 - 1 x101 - 1 x102 + 1 x103 + 1 x104 >= -4
x41 + x42 + x43 + x44 + x105 + x106 + x107 + x108 - 3 d11 >= 0
d11 - x41 >= 0
d11 - x42 >= 0
d11 - x43 >= 0
d11 - x44 >= 0
d11 - x105 >= 0
d11 - x106 >= 0
d11 - x107 >= 0
d11 - x108 >= 0
x41 + x42 + x43 + x44 - A11 >= 0
A11 - x41 >= 0
A11 - x42 >= 0
A11 - x43 >= 0
A11 - x44 >= 0
4 x41 + 4 x42 + 4 x43 + 4 x44 - x105 - x106 - x107 - x108 >= 0
4 x105 + 4 x106 + 4 x107 + 4 x108 - x41 - x42 - x43 - x44 >= 0
 + 0 x41 - 2 x42 - 2 x43 + 3 x44 + 4 x105 + 1 x106 + 4 x107 + 1 x108 >= 0
 + 3 x41 + 4 x42 + 4 x43 + 1 x44 - 2 x105 + 0 x106 - 2 x107 + 1 x108 >= 0
 - 2 x41 + 1 x42 + 1 x43 + 3 x44 + 1 x105 - 1 x106 + 1 x107 + 2 x108 >= 0
 + 1 x41 - 2 x42 - 3 x43 - 2 x44 + 1 x105 - 4 x106 + 3 x107 - 3 x108 >= -10
 + 2 x41 + 1 x42 + 1 x43 - 3 x44 + 1 x105 + 2 x106 + 1 x107 + 2 x108 >= 0
 - 1 x41 - 2 x42 - 2 x43 - 1 x44 - 1 x105 + 2 x106 - 1 x107 + 0 x108 >= -6
 - 3 x41 + 2 x42 - 2 x43 - 1 x44 + 1 x105 - 2 x106 - 2 x107 - 1 x108 >= -8
 - 3 x41 - 2 x42 + 2 x43 - 1 x44 - 2 x105 - 2 x106 + 1 x107 - 1 x108 >= -8
 + 2 x41 + 2 x42 - 1 x43 + 2 x44 - 1 x105 + 3 x106 + 2 x107 - 1 x108 >= 0
 + 3 x41 + 2 x42 + 2 x43 - 1 x44 - 4 x105 - 2 x106 - 4 x107 - 1 x108 >= -8
 + 2 x41 - 3 x42 - 1 x43 - 1 x44 + 2 x105 + 1 x106 - 3 x107 - 3 x108 >= -8
 + 0 x41 + 1 x42 + 1 x43 + 0 x44 + 1 x105 + 0 x106 + 1 x107 - 1 x108 >= 0
 - 2 x41 - 1 x42 - 1 x43 + 2 x44 - 2 x105 + 0 x106 - 2 x107 - 1 x108 >= -7
 + 1 x41 - 2 x42 + 3 x43 - 2 x44 + 1 x105 + 4 x106 + 3 x107 + 4 x108 >= 0
 + 1 x41 + 2 x42 - 2 x43 - 3 x44 - 3 x105 - 3 x106 - 1 x107 + 1 x108 >= -9
 + 1 x41 + 3 x42 - 2 x43 - 2 x44 + 3 x105 + 4 x106 + 1 x107 + 4 x108 >= 0
 - 1 x41 + 1 x42 + 1 x43 - 1 x44 + 0 x105 + 0 x106 + 0 x107 - 1 x108 >= -2
 + 1 x41 - 1 x42 + 1 x43 + 1 x44 + 1 x105 + 2 x106 - 1 x107 - 1 x108 >= -1
 - 1 x41 - 2 x42 + 1 x43 - 1 x44 + 1 x105 - 2 x106 - 2 x107 + 2 x108 >= -6
 + 1 x41 - 1 x42 - 1 x43 + 0 x44 - 1 x105 + 0 x106 - 1 x107 + 1 x108 >= -3
 + 3 x41 - 3 x42 - 2 x43 + 1 x44 - 1 x105 - 1 x106 + 3 x107 - 3 x108 >= -7
 + 1 x41 + 0 x42 - 1 x43 + 1 x44 + 1 x105 - 1 x106 - 1 x107 - 1 x108 >= -3
 + 0 x41 + 2 x42 + 2 x43 + 1 x44 - 1 x105 + 1 x106 - 1 x107 + 2 x108 >= 0
 - 1 x41 + 0 x42 - 1 x43 - 1 x44 - 1 x105 - 1 x106 + 1 x107 + 1 x108 >= -4
x45 + x46 + x47 + x48 + x109 + x110 + x111 + x112 - 3 d12 >= 0
d12 - x45 >= 0
d12 - x46 >= 0
d12 - x47 >= 0
d12 - x48 >= 0
d12 - x109 >= 0
d12 - x110 >= 0
d12 - x111 >= 0
d12 - x112 >= 0
x45 + x46 + x47 + x48 - A12 >= 0
A12 - x45 >= 0
A12 - x46 >= 0
A12 - x47 >= 0
A12 - x48 >= 0
4 x45 + 4 x46 + 4 x47 + 4 x48 - x109 - x110 - x111 - x112 >= 0
4 x109 + 4 x110 + 4 x111 + 4 x112 - x45 - x46 - x47 - x48 >= 0
 + 0 x45 - 2 x46 - 2 x47 + 3 x48 + 4 x109 + 1 x110 + 4 x111 + 1 x112 >= 0
 + 3 x45 + 4 x46 + 4 x47 + 1 x48 - 2 x109 + 0 x110 - 2 x111 + 1 x112 >= 0
 - 2 x45 + 1 x46 + 1 x47 + 3 x48 + 1 x109 - 1 x110 + 1 x111 + 2 x112 >= 0
 + 1 x45 - 2 x46 - 3 x47 - 2 x48 + 1 x109 - 4 x110 + 3 x111 - 3 x112 >= -10
 + 2 x45 + 1 x46 + 1 x47 - 3 x48 + 1 x109 + 2 x110 + 1 x111 + 2 x112 >= 0
 - 1 x45 - 2 x46 - 2 x47 - 1 x48 - 1 x109 + 2 x110 - 1 x111 + 0 x112 >= -6
 - 3 x45 + 2 x46 - 2 x47 - 1 x48 + 1 x109 - 2 x110 - 2 x111 - 1 x112 >= -8
 - 3 x45 - 2 x46 + 2 x47 - 1 x48 - 2 x109 - 2 x110 + 1 x111 - 1 x112 >= -8
 + 2 x45 + 2 x46 - 1 x47 + 2 x48 - 1 x109 + 3 x110 + 2 x111 - 1 x112 >= 0
 + 3 x45 + 2 x46 + 2 x47 - 1 x48 - 4 x109 - 2 x110 - 4 x111 - 1 x112 >= -8
 + 2 x45 - 3 x46 - 1 x47 - 1 x48 + 2 x109 + 1 x110 - 3 x111 - 3 x112 >= -8
 + 0 x45 + 1 x46 + 1 x47 + 0 x48 + 1 x109 + 0 x110 + 1 x111 - 1 x112 >= 0
 - 2 x45 - 1 x46 - 1 x47 + 2 x48 - 2 x109 + 0 x110 - 2 x111 - 1 x112 >= -7
 + 1 x45 - 2 x46 + 3 x47 - 2 x48 + 1 x109 + 4 x110 + 3 x111 + 4 x112 >= 0
 + 1 x45 + 2 x46 - 2 x47 - 3 x48 - 3 x109 - 3 x110 - 1 x111 + 1 x112 >= -9
 + 1 x45 + 3 x46 - 2 x47 - 2 x48 + 3 x109 + 4 x110 + 1 x111 + 4 x112 >= 0
 - 1 x45 + 1 x46 + 1 x47 - 1 x48 + 0 x109 + 0 x110 + 0 x111 - 1 x112 >= -2
 + 1 x45 - 1 x46 + 1 x47 + 1 x48 + 1 x109 + 2 x110 - 1 x111 - 1 x112 >= -1
 - 1 x45 - 2 x46 + 1 x47 - 1 x48 + 1 x109 - 2 x110 - 2 x111 + 2 x112 >= -6
 + 1 x45 - 1 x46 - 1 x47 + 0 x48 - 1 x109 + 0 x110 - 1 x111 + 1 x112 >= -3
 + 3 x45 - 3 x46 - 2 x47 + 1 x48 - 1 x109 - 1 x110 + 3 x111 - 3 x112 >= -7
 + 1 x45 + 0 x46 - 1 x47 + 1 x48 + 1 x109 - 1 x110 - 1 x111 - 1 x112 >= -3
 + 0 x45 + 2 x46 + 2 x47 + 1 x48 - 1 x109 + 1 x110 - 1 x111 + 2 x112 >= 0
 - 1 x45 + 0 x46 - 1 x47 - 1 x48 - 1 x109 - 1 x110 + 1 x111 + 1 x112 >= -4
x49 + x50 + x51 + x52 + x113 + x114 + x115 + x116 - 3 d13 >= 0
d13 - x49 >= 0
d13 - x50 >= 0
d13 - x51 >= 0
d13 - x52 >= 0
d13 - x113 >= 0
d13 - x114 >= 0
d13 - x115 >= 0
d13 - x116 >= 0
x49 + x50 + x51 + x52 - A13 >= 0
A13 - x49 >= 0
A13 - x50 >= 0
A13 - x51 >= 0
A13 - x52 >= 0
4 x49 + 4 x50 + 4 x51 + 4 x52 - x113 - x114 - x115 - x116 >= 0
4 x113 + 4 x114 + 4 x115 + 4 x116 - x49 - x50 - x51 - x52 >= 0
 + 0 x49 - 2 x50 - 2 x51 + 3 x52 + 4 x113 + 1 x114 + 4 x115 + 1 x116 >= 0
 + 3 x49 + 4 x50 + 4 x51 + 1 x52 - 2 x113 + 0 x114 - 2 x115 + 1 x116 >= 0
 - 2 x49 + 1 x50 + 1 x51 + 3 x52 + 1 x113 - 1 x114 + 1 x115 + 2 x116 >= 0
 + 1 x49 - 2 x50 - 3 x51 - 2 x52 + 1 x113 - 4 x114 + 3 x115 - 3 x116 >= -10
 + 2 x49 + 1 x50 + 1 x51 - 3 x52 + 1 x113 + 2 x114 + 1 x115 + 2 x116 >= 0
 - 1 x49 - 2 x50 - 2 x51 - 1 x52 - 1 x113 + 2 x114 - 1 x115 + 0 x116 >= -6
 - 3 x49 + 2 x50 - 2 x51 - 1 x52 + 1 x113 - 2 x114 - 2 x115 - 1 x116 >= -8
 - 3 x49 - 2 x50 + 2 x51 - 1 x52 - 2 x113 - 2 x114 + 1 x115 - 1 x116 >= -8
 + 2 x49 + 2 x50 - 1 x51 + 2 x52 - 1 x113 + 3 x114 + 2 x115 - 1 x116 >= 0
 + 3 x49 + 2 x50 + 2 x51 - 1 x52 - 4 x113 - 2 x114 - 4 x115 - 1 x116 >= -8
 + 2 x49 - 3 x50 - 1 x51 - 1 x52 + 2 x113 + 1 x114 - 3 x115 - 3 x116 >= -8
 + 0 x49 + 1 x50 + 1 x51 + 0 x52 + 1 x113 + 0 x114 + 1 x115 - 1 x116 >= 0
 - 2 x49 - 1 x50 - 1 x51 + 2 x52 - 2 x113 + 0 x114 - 2 x115 - 1 x116 >= -7
 + 1 x49 - 2 x50 + 3 x51 - 2 x52 + 1 x113 + 4 x114 + 3 x115 + 4 x116 >= 0
 + 1 x49 + 2 x50 - 2 x51 - 3 x52 - 3 x113 - 3 x114 - 1 x115 + 1 x116 >= -9
 + 1 x49 + 3 x50 - 2 x51 - 2 x52 + 3 x113 + 4 x114 + 1 x115 + 4 x116 >= 0
 - 1 x49 + 1 x50 + 1 x51 - 1 x52 + 0 x113 + 0 x114 + 0 x115 - 1 x116 >= -2
 + 1 x49 - 1 x50 + 1 x51 + 1 x52 + 1 x113 + 2 x114 - 1 x115 - 1 x116 >= -1
 - 1 x49 - 2 x50 + 1 x51 - 1 x52 + 1 x113 - 2 x114 - 2 x115 + 2 x116 >= -6
 + 1 x49 - 1 x50 - 1 x51 + 0 x52 - 1 x113 + 0 x114 - 1 x115 + 1 x116 >= -3
 + 3 x49 - 3 x50 - 2 x51 + 1 x52 - 1 x113 - 1 x114 + 3 x115 - 3 x116 >= -7
 + 1 x49 + 0 x50 - 1 x51 + 1 x52 + 1 x113 - 1 x114 - 1 x115 - 1 x116 >= -3
 + 0 x49 + 2 x50 + 2 x51 + 1 x52 - 1 x113 + 1 x114 - 1 x115 + 2 x116 >= 0
 - 1 x49 + 0 x50 - 1 x51 - 1 x52 - 1 x113 - 1 x114 + 1 x115 + 1 x116 >= -4
x53 + x54 + x55 + x56 + x117 + x118 + x119 + x120 - 3 d14 >= 0
d14 - x53 >= 0
d14 - x54 >= 0
d14 - x55 >= 0
d14 - x56 >= 0
d14 - x117 >= 0
d14 - x118 >= 0
d14 - x119 >= 0
d14 - x120 >= 0
x53 + x54 + x55 + x56 - A14 >= 0
A14 - x53 >= 0
A14 - x54 >= 0
A14 - x55 >= 0
A14 - x56 >= 0
4 x53 + 4 x54 + 4 x55 + 4 x56 - x117 - x118 - x119 - x120 >= 0
4 x117 + 4 x118 + 4 x119 + 4 x120 - x53 - x54 - x55 - x56 >= 0
 + 0 x53 - 2 x54 - 2 x55 + 3 x56 + 4 x117 + 1 x118 + 4 x119 + 1 x120 >= 0
 + 3 x53 + 4 x54 + 4 x55 + 1 x56 - 2 x117 + 0 x118 - 2 x119 + 1 x120 >= 0
 - 2 x53 + 1 x54 + 1 x55 + 3 x56 + 1 x117 - 1 x118 + 1 x119 + 2 x120 >= 0
 + 1 x53 - 2 x54 - 3 x55 - 2 x56 + 1 x117 - 4 x118 + 3 x119 - 3 x120 >= -10
 + 2 x53 + 1 x54 + 1 x55 - 3 x56 + 1 x117 + 2 x118 + 1 x119 + 2 x120 >= 0
 - 1 x53 - 2 x54 - 2 x55 - 1 x56 - 1 x117 + 2 x118 - 1 x119 + 0 x120 >= -6
 - 3 x53 + 2 x54 - 2 x55 - 1 x56 + 1 x117 - 2 x118 - 2 x119 - 1 x120 >= -8
 - 3 x53 - 2 x54 + 2 x55 - 1 x56 - 2 x117 - 2 x118 + 1 x119 - 1 x120 >= -8
 + 2 x53 + 2 x54 - 1 x55 + 2 x56 - 1 x117 + 3 x118 + 2 x119 - 1 x120 >= 0
 + 3 x53 + 2 x54 + 2 x55 - 1 x56 - 4 x117 - 2 x118 - 4 x119 - 1 x120 >= -8
 + 2 x53 - 3 x54 - 1 x55 - 1 x56 + 2 x117 + 1 x118 - 3 x119 - 3 x120 >= -8
 + 0 x53 + 1 x54 + 1 x55 + 0 x56 + 1 x117 + 0 x118 + 1 x119 - 1 x120 >= 0
 - 2 x53 - 1 x54 - 1 x55 + 2 x56 - 2 x117 + 0 x118 - 2 x119 - 1 x120 >= -7
 + 1 x53 - 2 x54 + 3 x55 - 2 x56 + 1 x117 + 4 x118 + 3 x119 + 4 x120 >= 0
 + 1 x53 + 2 x54 - 2 x55 - 3 x56 - 3 x117 - 3 x118 - 1 x119 + 1 x120 >= -9
 + 1 x53 + 3 x54 - 2 x55 - 2 x56 + 3 x117 + 4 x118 + 1 x119 + 4 x120 >= 0
 - 1 x53 + 1 x54 + 1 x55 - 1 x56 + 0 x117 + 0 x118 + 0 x119 - 1 x120 >= -2
 + 1 x53 - 1 x54 + 1 x55 + 1 x56 + 1 x117 + 2 x118 - 1 x119 - 1 x120 >= -1
 - 1 x53 - 2 x54 + 1 x55 - 1 x56 + 1 x117 - 2 x118 - 2 x119 + 2 x120 >= -6
 + 1 x53 - 1 x54 - 1 x55 + 0 x56 - 1 x117 + 0 x118 - 1 x119 + 1 x120 >= -3
 + 3 x53 - 3 x54 - 2 x55 + 1 x56 - 1 x117 - 1 x118 + 3 x119 - 3 x120 >= -7
 + 1 x53 + 0 x54 - 1 x55 + 1 x56 + 1 x117 - 1 x118 - 1 x119 - 1 x120 >= -3
 + 0 x53 + 2 x54 + 2 x55 + 1 x56 - 1 x117 + 1 x118 - 1 x119 + 2 x120 >= 0
 - 1 x53 + 0 x54 - 1 x55 - 1 x56 - 1 x117 - 1 x118 + 1 x119 + 1 x120 >= -4
x57 + x58 + x59 + x60 + x121 + x122 + x123 + x124 - 3 d15 >= 0
d15 - x57 >= 0
d15 - x58 >= 0
d15 - x59 >= 0
d15 - x60 >= 0
d15 - x121 >= 0
d15 - x122 >= 0
d15 - x123 >= 0
d15 - x124 >= 0
x57 + x58 + x59 + x60 - A15 >= 0
A15 - x57 >= 0
A15 - x58 >= 0
A15 - x59 >= 0
A15 - x60 >= 0
4 x57 + 4 x58 + 4 x59 + 4 x60 - x121 - x122 - x123 - x124 >= 0
4 x121 + 4 x122 + 4 x123 + 4 x124 - x57 - x58 - x59 - x60 >= 0
 + 0 x57 - 2 x58 - 2 x59 + 3 x60 + 4 x121 + 1 x122 + 4 x123 + 1 x124 >= 0
 + 3 x57 + 4 x58 + 4 x59 + 1 x60 - 2 x121 + 0 x122 - 2 x123 + 1 x124 >= 0
 - 2 x57 + 1 x58 + 1 x59 + 3 x60 + 1 x121 - 1 x122 + 1 x123 + 2 x124 >= 0
 + 1 x57 - 2 x58 - 3 x59 - 2 x60 + 1 x121 - 4 x122 + 3 x123 - 3 x124 >= -10
 + 2 x57 + 1 x58 + 1 x59 - 3 x60 + 1 x121 + 2 x122 + 1 x123 + 2 x124 >= 0
 - 1 x57 - 2 x58 - 2 x59 - 1 x60 - 1 x121 + 2 x122 - 1 x123 + 0 x124 >= -6
 - 3 x57 + 2 x58 - 2 x59 - 1 x60 + 1 x121 - 2 x122 - 2 x123 - 1 x124 >= -8
 - 3 x57 - 2 x58 + 2 x59 - 1 x60 - 2 x121 - 2 x122 + 1 x123 - 1 x124 >= -8
 + 2 x57 + 2 x58 - 1 x59 + 2 x60 - 1 x121 + 3 x122 + 2 x123 - 1 x124 >= 0
 + 3 x57 + 2 x58 + 2 x59 - 1 x60 - 4 x121 - 2 x122 - 4 x123 - 1 x124 >= -8
 + 2 x57 - 3 x58 - 1 x59 - 1 x60 + 2 x121 + 1 x122 - 3 x123 - 3 x124 >= -8
 + 0 x57 + 1 x58 + 1 x59 + 0 x60 + 1 x121 + 0 x122 + 1 x123 - 1 x124 >= 0
 - 2 x57 - 1 x58 - 1 x59 + 2 x60 - 2 x121 + 0 x122 - 2 x123 - 1 x124 >= -7
 + 1 x57 - 2 x58 + 3 x59 - 2 x60 + 1 x121 + 4 x122 + 3 x123 + 4 x124 >= 0
 + 1 x57 + 2 x58 - 2 x59 - 3 x60 - 3 x121 - 3 x122 - 1 x123 + 1 x124 >= -9
 + 1 x57 + 3 x58 - 2 x59 - 2 x60 + 3 x121 + 4 x122 + 1 x123 + 4 x124 >= 0
 - 1 x57 + 1 x58 + 1 x59 - 1 x60 + 0 x121 + 0 x122 + 0 x123 - 1 x124 >= -2
 + 1 x57 - 1 x58 + 1 x59 + 1 x60 + 1 x121 + 2 x122 - 1 x123 - 1 x124 >= -1
 - 1 x57 - 2 x58 + 1 x59 - 1 x60 + 1 x121 - 2 x122 - 2 x123 + 2 x124 >= -6
 + 1 x57 - 1 x58 - 1 x59 + 0 x60 - 1 x121 + 0 x122 - 1 x123 + 1 x124 >= -3
 + 3 x57 - 3 x58 - 2 x59 + 1 x60 - 1 x121 - 1 x122 + 3 x123 - 3 x124 >= -7
 + 1 x57 + 0 x58 - 1 x59 + 1 x60 + 1 x121 - 1 x122 - 1 x123 - 1 x124 >= -3
 + 0 x57 + 2 x58 + 2 x59 + 1 x60 - 1 x121 + 1 x122 - 1 x123 + 2 x124 >= 0
 - 1 x57 + 0 x58 - 1 x59 - 1 x60 - 1 x121 - 1 x122 + 1 x123 + 1 x124 >= -4
x61 + x62 + x63 + x64 + x125 + x126 + x127 + x128 - 3 d16 >= 0
d16 - x61 >= 0
d16 - x62 >= 0
d16 - x63 >= 0
d16 - x64 >= 0
d16 - x125 >= 0
d16 - x126 >= 0
d16 - x127 >= 0
d16 - x128 >= 0
x61 + x62 + x63 + x64 - A16 >= 0
A16 - x61 >= 0
A16 - x62 >= 0
A16 - x63 >= 0
A16 - x64 >= 0
4 x61 + 4 x62 + 4 x63 + 4 x64 - x125 - x126 - x127 - x128 >= 0
4 x125 + 4 x126 + 4 x127 + 4 x128 - x61 - x62 - x63 - x64 >= 0
 + 0 x61 - 2 x62 - 2 x63 + 3 x64 + 4 x125 + 1 x126 + 4 x127 + 1 x128 >= 0
 + 3 x61 + 4 x62 + 4 x63 + 1 x64 - 2 x125 + 0 x126 - 2 x127 + 1 x128 >= 0
 - 2 x61 + 1 x62 + 1 x63 + 3 x64 + 1 x125 - 1 x126 + 1 x127 + 2 x128 >= 0
 + 1 x61 - 2 x62 - 3 x63 - 2 x64 + 1 x125 - 4 x126 + 3 x127 - 3 x128 >= -10
 + 2 x61 + 1 x62 + 1 x63 - 3 x64 + 1 x125 + 2 x126 + 1 x127 + 2 x128 >= 0
 - 1 x61 - 2 x62 - 2 x63 - 1 x64 - 1 x125 + 2 x126 - 1 x127 + 0 x128 >= -6
 - 3 x61 + 2 x62 - 2 x63 - 1 x64 + 1 x125 - 2 x126 - 2 x127 - 1 x128 >= -8
 - 3 x61 - 2 x62 + 2 x63 - 1 x64 - 2 x125 - 2 x126 + 1 x127 - 1 x128 >= -8
 + 2 x61 + 2 x62 - 1 x63 + 2 x64 - 1 x125 + 3 x126 + 2 x127 - 1 x128 >= 0
 + 3 x61 + 2 x62 + 2 x63 - 1 x64 - 4 x125 - 2 x126 - 4 x127 - 1 x128 >= -8
 + 2 x61 - 3 x62 - 1 x63 - 1 x64 + 2 x125 + 1 x126 - 3 x127 - 3 x128 >= -8
 + 0 x61 + 1 x62 + 1 x63 + 0 x64 + 1 x125 + 0 x126 + 1 x127 - 1 x128 >= 0
 - 2 x61 - 1 x62 - 1 x63 + 2 x64 - 2 x125 + 0 x126 - 2 x127 - 1 x128 >= -7
 + 1 x61 - 2 x62 + 3 x63 - 2 x64 + 1 x125 + 4 x126 + 3 x127 + 4 x128 >= 0
 + 1 x61 + 2 x62 - 2 x63 - 3 x64 - 3 x125 - 3 x126 - 1 x127 + 1 x128 >= -9
 + 1 x61 + 3 x62 - 2 x63 - 2 x64 + 3 x125 + 4 x126 + 1 x127 + 4 x128 >= 0
 - 1 x61 + 1 x62 + 1 x63 - 1 x64 + 0 x125 + 0 x126 + 0 x127 - 1 x128 >= -2
 + 1 x61 - 1 x62 + 1 x63 + 1 x64 + 1 x125 + 2 x126 - 1 x127 - 1 x128 >= -1
 - 1 x61 - 2 x62 + 1 x63 - 1 x64 + 1 x125 - 2 x126 - 2 x127 + 2 x128 >= -6
 + 1 x61 - 1 x62 - 1 x63 + 0 x64 - 1 x125 + 0 x126 - 1 x127 + 1 x128 >= -3
 + 3 x61 - 3 x62 - 2 x63 + 1 x64 - 1 x125 - 1 x126 + 3 x127 - 3 x128 >= -7
 + 1 x61 + 0 x62 - 1 x63 + 1 x64 + 1 x125 - 1 x126 - 1 x127 - 1 x128 >= -3
 + 0 x61 + 2 x62 + 2 x63 + 1 x64 - 1 x125 + 1 x126 - 1 x127 + 2 x128 >= 0
 - 1 x61 + 0 x62 - 1 x63 - 1 x64 - 1 x125 - 1 x126 + 1 x127 + 1 x128 >= -4
x0 = 0
x1 + x2 + x3 + x4 + x5 + x6 + x7 + x8 + x9 + x10 + x11 + x12 + x13 + x14 + x15 + x16 + x17 + x18 + x19 + x20 + x21 + x22 + x23 + x24 + x25 + x26 + x27 + x28 + x29 + x30 + x31 + x32 + x33 + x34 + x35 + x36 + x37 + x38 + x39 + x40 + x41 + x42 + x43 + x44 + x45 + x46 + x47 + x48 + x49 + x50 + x51 + x52 + x53 + x54 + x55 + x56 + x57 + x58 + x59 + x60 + x61 + x62 + x63 + x64 >= 1
Binary
x1
x2
x3
x4
x5
x6
x7
x8
x9
x10
x11
x12
x13
x14
x15
x16
x17
x18
x19
x20
x21
x22
x23
x24
x25
x26
x27
x28
x29
x30
x31
x32
x33
x34
x35
x36
x37
x38
x39
x40
x41
x42
x43
x44
x45
x46
x47
x48
x49
x50
x51
x52
x53
x54
x55
x56
x57
x58
x59
x60
x61
x62
x63
x64
x65
x66
x67
x68
x69
x70
x71
x72
x73
x74
x75
x76
x77
x78
x79
x80
x81
x82
x83
x84
x85
x86
x87
x88
x89
x90
x91
x92
x93
x94
x95
x96
x97
x98
x99
x100
x101
x102
x103
x104
x105
x106
x107
x108
x109
x110
x111
x112
x113
x114
x115
x116
x117
x118
x119
x120
x121
x122
x123
x124
x125
x126
x127
x128
d1
d2
d3
d4
d5
d6
d7
d8
d9
d10
d11
d12
d13
d14
d15
d16
A1
A2
A3
A4
A5
A6
A7
A8
A9
A10
A11
A12
A13
A14
A15
A16
General
y0
End